% demand
num_movements = 34;
loading_factor = [800, 1550, 950, 1250, 1300, 1000, 1950, 1700, 1150, 1300, 1850, 1950, 1000, 1200, 950, 1950, 850, 1400, 1900, 800, 1500, 1350, 1500, 950, 950, 1500, 1700, 1150, 950, 950, 800, 1550, 1950, 1600];
pickup_time = [0, 0, 0, 0, 0, 0, 0, 0, 1, 1, 1, 1, 1, 2, 2, 2, 3, 3, 3, 3, 6, 6, 6, 6, 6, 6, 6, 6, 7, 7, 7, 7, 8, 8];
delivery_time = [3, 1, 1, 1, 2, 1, 1, 1, 2, 2, 2, 5, 2, 4, 4, 5, 4, 5, 4, 4, 8, 9, 7, 9, 9, 7, 7, 7, 8, 8, 9, 9, 9, 9];

% transporter definition
total_capacity = 11000;
num_decks = 4;
capacity = [3000, 3000, 1000, 4000];

% ways out of decks
num_ways_out = 2;
paths_out = array3d(decks, ways_out, decks, [
% ways out of deck d1
2, 4, 0, 0, 3, 4, 0, 0, 

% ways out of deck d2
4, 0, 0, 0, 0, 0, 0, 0,	

% ways out of deck d3
4, 0, 0, 0, 0, 0, 0, 0,	

% ways out of deck d4
0, 0, 0, 0,	0, 0, 0, 0,	

]);

